(declare-datatypes (T1 T2) ((Pair (mk-pair (first T1) (second T2)))))
(declare-const a1 (Array Int (Pair Int Int)))
(declare-const a2 (Array Int (Pair Int Int)))
(declare-const p1 (Pair Int Int))
(assert (= (first p1) 10))
(assert (= (second p1) 10))
(assert (= (store a1 0 p1) a2))
(declare-const i Int)
(assert (= i (+ (first (select a2 0))) 1))
(assert (not (= i 11)))
(check-sat)